num_offers = 35;
num_halls = 10;
start=[31,1,71,60,14,20,5,48,8,65,1,47,37,59,68,19,34,87,51,25,15,41,25,24,6,74,74,41,4,2,20,5,33,11,58];
end=[75,40,98,63,57,44,74,88,68,100,8,88,61,87,80,73,75,97,90,41,88,66,32,90,34,94,82,79,80,37,90,95,66,41,82];
price=[2267,449,2682,198,997,1760,2578,3210,2311,2781,508,1962,735,2461,1179,4772,4066,716,2671,1538,3795,595,644,5087,891,1904,662,2795,5020,2677,1006,9050,1367,1213,2038];
requirement=[223,737,459,648,982,928,699,239,443,529,400,935,626,612,898,529,758,694,845,240,884,321,703,421,432,874,305,462,393,592,703,730,837,557,724];
capacity=[302,779,634,466,852,362,568,243,924,902];
